 $CONTRL 
   SCFTYP=UHF
   RUNTYP=GRADIENT 
   DFTTYP=NONE
   ICHARG=0
   TDDFT=SPNFLP
   MAXIT=200 
   MULT=3 
 $END
 $SCF
   CONV=1.0D-10
 $END
 $TDDFT 
   TAMMD=.T.
   MAXVEC=1000
   NSTATE=5
   NTRIAL=20
   IROOT=1
   CNVTOL=1.0E-8
   ZVTOL=1.0E-10
 $END
 $GUESS GUESS=huckel $END
 $BASIS GBASIS=N31 NGAUSS=6 NDFUNC=1 $END
 $SYSTEM TIMLIM=999999100 MWORDS=500 $END
 $DATA

 c1
 C    6.0  -0.0000000000   0.6405243427  -0.0185521420
 C    6.0   0.2000000000  -0.6305243428  -0.0165521421
 F    9.0  -0.1000000000   1.2156446665  -0.9292030778
 F    9.0   0.0000000000  -1.2456446664  -0.9192030780
 H    1.0  -0.1000000000  -1.3965430797   1.1378852200
 H    1.0   0.0000000000   1.3905430798   1.1178852199
 $end
