 $CONTRL 
   SCFTYP=UHF
   RUNTYP=ENERGY
   DFTTYP=NONE
   ICHARG=0
   TDDFT=MRSF
   MAXIT=200 
   MULT=3 
 $END
 $SCF
   COUPLE=.TRUE. ALPHA(1)= 0.5,0.5, 0.5  BETA(1) = 0.5,0.5, 0.5
   CONV=1.0D-10
   MOMOO=.F.
 $END
 $TDDFT 
   TAMMD=.T.
   MAXVEC=1000
   mult=1
   NSTATE=5
   NTRIAL=20
   IROOT=1
   CNVTOL=1.0E-8
   ZVTOL=1.0E-10
 $END
 $GUESS GUESS=huckel $END
 $BASIS GBASIS=N31 NGAUSS=6 NDFUNC=1 $END
 $SYSTEM TIMLIM=999999100 MWORDS=500 $END
 $DATA

 c1
 C  6.0   0.000000     0.000000     0.665000
 C  6.0   0.000000     0.000000    -0.665000
 H  1.0   0.000000     0.923000     1.232000
 H  1.0   0.000000    -0.923000     1.232000
 H  1.0  -0.653000     0.653000    -1.232000
 H  1.0   0.653000    -0.653000    -1.232000
 $end
